50
12269

291 922
964 999
750 248
450 288
177 616
131 433
670 857
266 501
116 544
743 906
216 284
905 301
838 952
778 342
861 186
348 67
480 879
592 98
543 5
283 444
970 380
542 318
469 680
424 920
359 967
538 392
457 197
15 459
14 470
597 356
462 813
607 616
796 272
141 419
143 912
598 966
888 99
909 75
979 602
587 429
214 282
678 764
886 616
915 807
427 856
499 730
951 390
626 19
605 135
294 333
